60
7
5
1
0 0
0 80
0 160
160 0
160 80
160 160
0 0
0 80
0 160
160 0
160 80
160 160
157 15
58 139
120 80
33 160
101 21
139 150
36 154
124 6
32 8
33 2
14 158
48 156
135 11
146 15
1 12
13 15
135 80
10 19
43 1
128 4
11 3
91 145
153 97
10 156
124 159
42 5
155 153
0 11
140 11
35 5
112 100
144 12
25 8
133 146
153 18
30 84
139 156
90 45
47 53
31 157
46 146
144 11
124 132
36 79
134 153
34 151
144 152
140 9
132 148
27 84
2 156
128 10
126 158
115 114
9 75
73 126
29 149
124 154
36 3
101 30
